============================[ Problem Statistics ]=============================|                                                                             ||  Number of variables:          4242                                         ||  Number of clauses:           10481                                         ||  Parse time:                   0.88 s                                       ||                                                                             |============================[ Search Statistics ]==============================| Conflicts |          ORIGINAL         |          LEARNT          | Progress ||           |    Vars  Clauses Literals |    Limit  Clauses Lit/Cl |          |===============================================================================|       100 |    1591     6686  1384827 |     2451      100     53 | 62.501 % ||       250 |    1591     6686  1384827 |     2696      250     75 | 62.495 % |===============================================================================restarts              : 4conflicts             : 466            (356 /sec)decisions             : 826            (0.00 % random) (631 /sec)propagations          : 13779          (10526 /sec)conflict literals     : 39683          (94.44 % deleted)CPU time              : 1.309 sSATISFIABLE